networks/zoo_100_980/zoo_100_980-lower.txt
Number of groups: 51
Flow 1: {1 2 0} {2 4 0} {4 3 0} {3 53 0} 
Flow 26: {19 18 0} {18 68 0} 
Flow 56: {30 29 0} {29 79 0} 
Flow 59: {33 83 0} 
Flow 70: {5 8 0} {8 58 0} 
Flow 130: {8 7 0} {7 3 0} {3 4 0} {4 50 0} {50 100 0} 
Flow 163: {46 96 0} 
Flow 181: {10 33 0} 
Flow 185: {10 5 0} {5 9 0} {9 36 0} {36 86 0} 
Flow 193: {11 12 0} {12 20 0} {20 31 0} {31 39 0} 
Flow 196: {13 31 0} {31 81 0} 
Flow 250: {15 46 0} {46 48 0} {48 49 0} {49 50 0} {50 41 0} {41 91 0} 
Flow 276: {17 18 0} {18 19 0} {19 20 0} {20 25 0} {25 75 0} 
Flow 280: {25 28 0} {28 27 0} {27 30 0} {30 80 0} 
Flow 282: {16 15 0} {15 14 0} {14 31 0} {31 32 0} {32 82 0} 
Flow 284: {9 33 0} {33 34 0} {34 84 0} 
Flow 308: {12 24 0} {24 74 0} 
Flow 332: {20 12 0} {12 11 0} {11 61 0} 
Flow 356: {3 42 0} {42 92 0} 
Flow 377: {21 27 0} {27 77 0} 
Flow 390: {23 38 0} 
Flow 395: {24 31 0} {31 9 0} {9 59 0} 
Flow 396: {24 12 0} {12 62 0} 
Flow 405: {14 15 0} {15 43 0} {43 93 0} 
Flow 456: {18 17 0} {17 16 0} {16 66 0} 
Flow 475: {28 26 0} {26 38 0} {38 39 0} {39 40 0} 
Flow 528: {39 33 0} {33 10 0} {10 60 0} 
Flow 535: {29 30 0} {30 27 0} {27 28 0} {28 25 0} {25 20 0} {20 19 0} {19 69 0} 
Flow 537: {29 22 0} {22 21 0} {21 71 0} 
Flow 603: {2 1 0} {1 51 0} 
Flow 621: {27 21 0} {21 22 0} {22 72 0} 
Flow 632: {34 35 0} {35 85 0} 
Flow 635: {33 40 0} {40 90 0} 
Flow 656: {35 36 0} {36 9 0} {9 48 0} {48 46 0} {46 15 0} {15 65 0} 
Flow 659: {35 34 0} {34 33 0} {33 39 0} {39 38 0} {38 26 0} {26 28 0} {28 78 0} 
Flow 686: {37 31 0} {31 20 0} {20 70 0} 
Flow 688: {37 9 0} {9 39 0} {39 89 0} 
Flow 693: {39 9 0} {9 2 0} {2 52 0} 
Flow 702: {38 23 0} {23 31 0} {31 14 0} {14 64 0} 
Flow 764: {36 35 0} 
Flow 779: {40 33 0} {33 9 0} {9 5 0} {5 55 0} 
Flow 792: {40 39 0} {39 31 0} {31 24 0} 
Flow 809: {50 4 0} {4 54 0} 
Flow 812: {41 42 0} {42 3 0} {3 7 0} {7 8 0} {8 5 0} {5 10 0} 
Flow 859: {4 2 0} {2 9 0} {9 32 0} 
Flow 864: {42 41 0} {41 50 0} {50 49 0} {49 48 0} {48 47 0} {47 43 0} {43 45 0} {45 95 0} 
Flow 875: {43 47 0} {47 97 0} 
Flow 884: {44 45 0} {45 43 0} {43 15 0} {15 16 0} {16 17 0} {17 67 0} 
Flow 892: {44 47 0} {47 48 0} {48 98 0} 
Flow 940: {48 9 0} {9 31 0} {31 23 0} {23 73 0} 
Flow 956: {47 44 0} {44 94 0} 
Time taken running everything: 5 seconds
