networks/zoo_100_980/zoo_100_980-lower.sol
<?xml version = "1.0" encoding="UTF-8" standalone="yes"?>
<CPLEXSolution version="1.2">
 <header
   problemName="networks/zoo_100_980/zoo_100_980-lower.lp"
   solutionName="incumbent"
   solutionIndex="-1"
   objectiveValue="51"
   solutionTypeValue="3"
   solutionTypeString="primal"
   solutionStatusValue="101"
   solutionStatusString="integer optimal solution"
   solutionMethodString="mip"
   primalFeasible="1"
   dualFeasible="1"
   MIPNodes="0"
   MIPIterations="2436"
   writeLevel="3"/>
 <quality
   epInt="1.0000000000000001e-05"
   epRHS="9.9999999999999995e-07"
   maxIntInfeas="0"
   maxPrimalInfeas="0"
   maxX="1"
   maxSlack="1"/>
 <variables>
  <variable name="Y(1,3)" index="2" value="1"/>
  <variable name="Y(26,18)" index="2316" value="1"/>
  <variable name="Y(56,29)" index="5087" value="1"/>
  <variable name="Y(59,33)" index="5367" value="1"/>
  <variable name="Y(70,8)" index="6354" value="1"/>
  <variable name="Y(130,50)" index="11916" value="1"/>
  <variable name="Y(163,46)" index="14948" value="1"/>
  <variable name="Y(181,10)" index="16568" value="1"/>
  <variable name="Y(185,36)" index="16962" value="1"/>
  <variable name="Y(193,31)" index="17693" value="1"/>
  <variable name="Y(196,31)" index="17969" value="1"/>
  <variable name="Y(250,41)" index="22947" value="1"/>
  <variable name="Y(276,25)" index="25323" value="1"/>
  <variable name="Y(280,30)" index="25696" value="1"/>
  <variable name="Y(282,32)" index="25882" value="1"/>
  <variable name="Y(284,34)" index="26068" value="1"/>
  <variable name="Y(308,24)" index="28266" value="1"/>
  <variable name="Y(332,11)" index="30461" value="1"/>
  <variable name="Y(356,42)" index="32700" value="1"/>
  <variable name="Y(377,27)" index="34617" value="1"/>
  <variable name="Y(390,23)" index="35809" value="1"/>
  <variable name="Y(395,9)" index="36255" value="1"/>
  <variable name="Y(396,12)" index="36350" value="1"/>
  <variable name="Y(405,43)" index="37209" value="1"/>
  <variable name="Y(456,16)" index="41874" value="1"/>
  <variable name="Y(475,39)" index="43645" value="1"/>
  <variable name="Y(528,10)" index="48492" value="1"/>
  <variable name="Y(535,19)" index="49145" value="1"/>
  <variable name="Y(537,21)" index="49331" value="1"/>
  <variable name="Y(603,1)" index="55384" value="1"/>
  <variable name="Y(621,22)" index="57060" value="1"/>
  <variable name="Y(632,35)" index="58085" value="1"/>
  <variable name="Y(635,40)" index="58366" value="1"/>
  <variable name="Y(656,15)" index="60273" value="1"/>
  <variable name="Y(659,28)" index="60562" value="1"/>
  <variable name="Y(686,20)" index="63038" value="1"/>
  <variable name="Y(688,39)" index="63241" value="1"/>
  <variable name="Y(693,2)" index="63665" value="1"/>
  <variable name="Y(702,14)" index="64504" value="1"/>
  <variable name="Y(764,36)" index="70230" value="1"/>
  <variable name="Y(779,5)" index="71580" value="1"/>
  <variable name="Y(792,31)" index="72801" value="1"/>
  <variable name="Y(809,4)" index="74339" value="1"/>
  <variable name="Y(812,5)" index="74616" value="1"/>
  <variable name="Y(859,9)" index="78943" value="1"/>
  <variable name="Y(864,45)" index="79439" value="1"/>
  <variable name="Y(875,47)" index="80453" value="1"/>
  <variable name="Y(884,17)" index="81251" value="1"/>
  <variable name="Y(892,48)" index="82018" value="1"/>
  <variable name="Y(940,23)" index="86409" value="1"/>
  <variable name="Y(956,44)" index="87902" value="1"/>
  <variable name="X(1,2,1)" index="90160" value="1"/>
  <variable name="X(1,51,603)" index="91742" value="1"/>
  <variable name="X(2,1,603)" index="92722" value="1"/>
  <variable name="X(2,4,1)" index="93100" value="1"/>
  <variable name="X(2,9,859)" index="94938" value="1"/>
  <variable name="X(2,52,693)" index="95752" value="1"/>
  <variable name="X(3,4,130)" index="96169" value="1"/>
  <variable name="X(3,7,812)" index="97831" value="1"/>
  <variable name="X(3,42,356)" index="98355" value="1"/>
  <variable name="X(3,53,1)" index="98980" value="1"/>
  <variable name="X(4,2,859)" index="100818" value="1"/>
  <variable name="X(4,3,1)" index="100940" value="1"/>
  <variable name="X(4,50,130)" index="102049" value="1"/>
  <variable name="X(4,54,809)" index="103708" value="1"/>
  <variable name="X(5,8,70)" index="103949" value="1"/>
  <variable name="X(5,9,185)" index="105044" value="1"/>
  <variable name="X(5,10,812)" index="106651" value="1"/>
  <variable name="X(5,55,779)" index="107598" value="1"/>
  <variable name="X(7,3,130)" index="107929" value="1"/>
  <variable name="X(7,8,812)" index="109591" value="1"/>
  <variable name="X(8,5,812)" index="110571" value="1"/>
  <variable name="X(8,7,130)" index="110869" value="1"/>
  <variable name="X(8,58,70)" index="111789" value="1"/>
  <variable name="X(9,2,693)" index="113392" value="1"/>
  <variable name="X(9,5,779)" index="114458" value="1"/>
  <variable name="X(9,31,940)" index="115599" value="1"/>
  <variable name="X(9,32,859)" index="116498" value="1"/>
  <variable name="X(9,33,284)" index="116903" value="1"/>
  <variable name="X(9,36,185)" index="117784" value="1"/>
  <variable name="X(9,39,688)" index="119267" value="1"/>
  <variable name="X(9,48,656)" index="120215" value="1"/>
  <variable name="X(9,59,395)" index="120934" value="1"/>
  <variable name="X(10,5,185)" index="121704" value="1"/>
  <variable name="X(10,33,181)" index="122680" value="1"/>
  <variable name="X(10,60,528)" index="124007" value="1"/>
  <variable name="X(11,12,193)" index="124652" value="1"/>
  <variable name="X(11,61,332)" index="125771" value="1"/>
  <variable name="X(12,11,332)" index="126751" value="1"/>
  <variable name="X(12,20,193)" index="127592" value="1"/>
  <variable name="X(12,24,308)" index="128687" value="1"/>
  <variable name="X(12,62,396)" index="129755" value="1"/>
  <variable name="X(13,31,196)" index="130535" value="1"/>
  <variable name="X(14,15,405)" index="131724" value="1"/>
  <variable name="X(14,31,282)" index="132581" value="1"/>
  <variable name="X(14,64,702)" index="133981" value="1"/>
  <variable name="X(15,14,282)" index="134541" value="1"/>
  <variable name="X(15,16,884)" index="136123" value="1"/>
  <variable name="X(15,43,405)" index="136624" value="1"/>
  <variable name="X(15,46,250)" index="137449" value="1"/>
  <variable name="X(15,65,656)" index="138835" value="1"/>
  <variable name="X(16,15,282)" index="139441" value="1"/>
  <variable name="X(16,17,884)" index="141023" value="1"/>
  <variable name="X(16,66,456)" index="141575" value="1"/>
  <variable name="X(17,16,456)" index="142555" value="1"/>
  <variable name="X(17,18,276)" index="143355" value="1"/>
  <variable name="X(17,67,884)" index="144943" value="1"/>
  <variable name="X(18,17,456)" index="145495" value="1"/>
  <variable name="X(18,19,276)" index="146295" value="1"/>
  <variable name="X(18,68,26)" index="147025" value="1"/>
  <variable name="X(19,18,26)" index="148005" value="1"/>
  <variable name="X(19,20,276)" index="149235" value="1"/>
  <variable name="X(19,69,535)" index="150474" value="1"/>
  <variable name="X(20,12,332)" index="151251" value="1"/>
  <variable name="X(20,19,535)" index="152434" value="1"/>
  <variable name="X(20,25,276)" index="153155" value="1"/>
  <variable name="X(20,31,193)" index="154052" value="1"/>
  <variable name="X(20,70,686)" index="155525" value="1"/>
  <variable name="X(21,22,621)" index="156440" value="1"/>
  <variable name="X(21,27,377)" index="157176" value="1"/>
  <variable name="X(21,71,537)" index="158316" value="1"/>
  <variable name="X(22,21,537)" index="159296" value="1"/>
  <variable name="X(22,72,621)" index="160360" value="1"/>
  <variable name="X(23,31,702)" index="161421" value="1"/>
  <variable name="X(23,38,390)" index="162089" value="1"/>
  <variable name="X(23,73,940)" index="163619" value="1"/>
  <variable name="X(24,12,396)" index="164055" value="1"/>
  <variable name="X(24,31,395)" index="165034" value="1"/>
  <variable name="X(24,74,308)" index="165927" value="1"/>
  <variable name="X(25,20,535)" index="167134" value="1"/>
  <variable name="X(25,28,280)" index="167859" value="1"/>
  <variable name="X(25,75,276)" index="168835" value="1"/>
  <variable name="X(26,28,659)" index="170198" value="1"/>
  <variable name="X(26,38,475)" index="170994" value="1"/>
  <variable name="X(27,21,621)" index="172120" value="1"/>
  <variable name="X(27,28,535)" index="173014" value="1"/>
  <variable name="X(27,30,280)" index="173739" value="1"/>
  <variable name="X(27,77,377)" index="174816" value="1"/>
  <variable name="X(28,25,535)" index="175954" value="1"/>
  <variable name="X(28,26,475)" index="176874" value="1"/>
  <variable name="X(28,27,280)" index="177659" value="1"/>
  <variable name="X(28,78,659)" index="179018" value="1"/>
  <variable name="X(29,22,537)" index="179876" value="1"/>
  <variable name="X(29,30,535)" index="180854" value="1"/>
  <variable name="X(29,79,56)" index="181355" value="1"/>
  <variable name="X(30,27,535)" index="182814" value="1"/>
  <variable name="X(30,29,56)" index="183315" value="1"/>
  <variable name="X(30,80,280)" index="184519" value="1"/>
  <variable name="X(31,9,395)" index="185614" value="1"/>
  <variable name="X(31,14,702)" index="186901" value="1"/>
  <variable name="X(31,20,686)" index="187865" value="1"/>
  <variable name="X(31,23,940)" index="189099" value="1"/>
  <variable name="X(31,24,792)" index="189931" value="1"/>
  <variable name="X(31,32,282)" index="190401" value="1"/>
  <variable name="X(31,39,193)" index="191292" value="1"/>
  <variable name="X(31,81,196)" index="192275" value="1"/>
  <variable name="X(32,82,282)" index="193341" value="1"/>
  <variable name="X(33,9,779)" index="194818" value="1"/>
  <variable name="X(33,10,528)" index="195547" value="1"/>
  <variable name="X(33,34,284)" index="196283" value="1"/>
  <variable name="X(33,39,659)" index="197638" value="1"/>
  <variable name="X(33,40,635)" index="198594" value="1"/>
  <variable name="X(33,83,59)" index="198998" value="1"/>
  <variable name="X(34,33,659)" index="200578" value="1"/>
  <variable name="X(34,35,632)" index="201531" value="1"/>
  <variable name="X(34,84,284)" index="202163" value="1"/>
  <variable name="X(35,34,659)" index="203518" value="1"/>
  <variable name="X(35,36,656)" index="204495" value="1"/>
  <variable name="X(35,85,632)" index="205451" value="1"/>
  <variable name="X(36,9,656)" index="206455" value="1"/>
  <variable name="X(36,35,764)" index="207543" value="1"/>
  <variable name="X(36,86,185)" index="207944" value="1"/>
  <variable name="X(37,9,688)" index="209427" value="1"/>
  <variable name="X(37,31,686)" index="210405" value="1"/>
  <variable name="X(38,23,702)" index="211401" value="1"/>
  <variable name="X(38,26,659)" index="212338" value="1"/>
  <variable name="X(38,39,475)" index="213134" value="1"/>
  <variable name="X(39,9,693)" index="214332" value="1"/>
  <variable name="X(39,31,792)" index="215411" value="1"/>
  <variable name="X(39,33,528)" index="216127" value="1"/>
  <variable name="X(39,38,659)" index="217238" value="1"/>
  <variable name="X(39,40,475)" index="218034" value="1"/>
  <variable name="X(39,89,688)" index="219227" value="1"/>
  <variable name="X(40,33,779)" index="220298" value="1"/>
  <variable name="X(40,39,792)" index="221291" value="1"/>
  <variable name="X(40,90,635)" index="222114" value="1"/>
  <variable name="X(41,42,812)" index="223271" value="1"/>
  <variable name="X(41,50,864)" index="224303" value="1"/>
  <variable name="X(41,91,250)" index="224669" value="1"/>
  <variable name="X(42,3,812)" index="226211" value="1"/>
  <variable name="X(42,41,864)" index="227243" value="1"/>
  <variable name="X(42,92,356)" index="227715" value="1"/>
  <variable name="X(43,15,884)" index="229223" value="1"/>
  <variable name="X(43,45,864)" index="230183" value="1"/>
  <variable name="X(43,47,875)" index="231174" value="1"/>
  <variable name="X(43,93,405)" index="231684" value="1"/>
  <variable name="X(44,45,884)" index="233143" value="1"/>
  <variable name="X(44,47,892)" index="234131" value="1"/>
  <variable name="X(44,94,956)" index="235175" value="1"/>
  <variable name="X(45,43,884)" index="236083" value="1"/>
  <variable name="X(45,95,864)" index="237043" value="1"/>
  <variable name="X(46,15,656)" index="237815" value="1"/>
  <variable name="X(46,48,250)" index="238389" value="1"/>
  <variable name="X(46,96,163)" index="239282" value="1"/>
  <variable name="X(47,43,864)" index="240963" value="1"/>
  <variable name="X(47,44,956)" index="242035" value="1"/>
  <variable name="X(47,48,892)" index="242951" value="1"/>
  <variable name="X(47,97,875)" index="243914" value="1"/>
  <variable name="X(48,9,940)" index="244959" value="1"/>
  <variable name="X(48,46,656)" index="245655" value="1"/>
  <variable name="X(48,47,864)" index="246843" value="1"/>
  <variable name="X(48,49,250)" index="247209" value="1"/>
  <variable name="X(48,98,892)" index="248831" value="1"/>
  <variable name="X(49,48,864)" index="249783" value="1"/>
  <variable name="X(49,50,250)" index="250149" value="1"/>
  <variable name="X(50,4,809)" index="251688" value="1"/>
  <variable name="X(50,41,250)" index="252109" value="1"/>
  <variable name="X(50,49,864)" index="253703" value="1"/>
  <variable name="X(50,100,130)" index="253949" value="1"/>
 </variables>
</CPLEXSolution>
